(set-logic QF_AUFBV)
(declare-fun bvlambda_1_ () (_ BitVec 1))
(declare-fun bvlambda_2_ () (_ BitVec 1))
(declare-fun bvlambda_3_ () (_ BitVec 1))
(declare-fun bvlambda_4_ () (_ BitVec 1))
(declare-fun bvlambda_5_ () (_ BitVec 2))
(declare-fun bvlambda_6_ () (_ BitVec 2))
(declare-fun bvlambda_7_ () (_ BitVec 1))
(declare-fun a37 () (Array (_ BitVec 2) (_ BitVec 2)))
(declare-fun a38 () (Array (_ BitVec 6) (_ BitVec 13)))
(declare-fun a39 () (Array (_ BitVec 1) (_ BitVec 13)))
(declare-fun a40 () (Array (_ BitVec 11) (_ BitVec 10)))
(assert
(let (($e1 (_ bv0 1)))
(let (($e2 (_ bv1556 13)))
(let (($e3 (_ bv14 7)))
(let (($e4 (_ bv3956 12)))
(let (($e5 (_ bv0 4)))
(let (($e6 (_ bv714 13)))
(let (($e7 (_ bv14 13)))
(let (($e8 (_ bv0 13)))
(let (($e9 (_ bv1908 11)))
(let (($e10 (_ bv20 6)))
(let (($e11 (_ bv0 3)))
(let (($e12 (_ bv8190 13)))
(let (($e13 (_ bv32766 15)))
(let (($e14 (_ bv2872 15)))
(let (($e15 (_ bv1978 12)))
(let (($e16 (_ bv0 8)))
(let (($e17 (_ bv0 12)))
(let (($e18 (_ bv778 12)))
(let (($e19 (_ bv0 5)))
(let (($e20 (_ bv0 6)))
(let (($e21 (_ bv1978 13)))
(let (($e22 (_ bv1556 12)))
(let (($e23 (_ bv0 11)))
(let (($e24 (_ bv0 14)))
(let (($e25 (_ bv0 2)))
(let (($e26 (_ bv3956 13)))
(let (($e27 (_ bv714 12)))
(let (($e28 (_ bv0 7)))
(let (($e29 (_ bv1556 14)))
(let (($e41 (concat $e5 bvlambda_1_)))
(let (($e42 (concat $e41 bvlambda_2_)))
(let (($e43 (concat $e42 bvlambda_3_)))
(let (($e44 (concat $e43 bvlambda_4_)))
(let (($e45 (concat $e44 bvlambda_5_)))
(let (($e46 (concat $e45 bvlambda_6_)))
(let (($e47 (concat $e46 bvlambda_7_)))
(let (($e48 (concat (bvnot $e5) bvlambda_1_)))
(let (($e49 (concat $e48 bvlambda_2_)))
(let (($e50 (concat $e49 bvlambda_3_)))
(let (($e51 (concat $e50 bvlambda_4_)))
(let (($e52 (concat $e51 bvlambda_5_)))
(let (($e53 (concat $e52 bvlambda_6_)))
(let (($e54 (concat $e53 bvlambda_7_)))
(let (($e55 (ite (= #b1 bvlambda_1_) $e54 $e47)))
(let (($e56 ((_ extract 12 12) $e55)))
(let (($e57 (select a38 (bvnot $e10))))
(let (($e58 ((_ extract 12 12) $e57)))
(let (($e59 (ite (= $e58 $e56) #b1 #b0)))
(let (($e60 ((_ extract 11 0) $e57)))
(let (($e61 ((_ extract 11 0) $e55)))
(let (($e62 (ite (bvult $e61 $e60) #b1 #b0)))
(let (($e63 (bvand $e62 $e59)))
(let (($e64 (bvand (bvnot $e58) $e56)))
(let (($e65 (bvand (bvnot $e64) (bvnot $e63))))
(let (($e66 (bvand (bvnot $e2) $e47)))
(let (($e67 (select a40 $e9)))
(let (($e68 ((_ extract 0 0) $e67)))
(let (($e69 (store a39 (bvnot $e1) $e7)))
(let (($e70 (select $e69 $e68)))
(let (($e71 (ite (= $e70 $e66) #b1 #b0)))
(let (($e72 (store $e69 bvlambda_3_ (bvnot $e8))))
(let (($e73 (select $e72 (bvnot $e1))))
(let (($e74 (concat $e11 $e67)))
(let (($e75 (ite (bvult $e74 $e73) #b1 #b0)))
(let (($e76 (concat (bvnot $e75) (bvnot $e75))))
(let (($e77 (select a37 bvlambda_5_)))
(let (($e78 (bvand $e77 $e76)))
(let (($e79 ((_ extract 0 0) $e78)))
(let (($e80 (ite (= $e79 (bvnot $e71)) #b1 #b0)))
(let (($e81 ((_ extract 1 1) $e78)))
(let (($e82 (bvand (bvnot $e81) $e80)))
(let (($e83 (concat (bvnot $e16) (bvnot $e75))))
(let (($e84 (concat $e16 (bvnot $e75))))
(let (($e85 (ite (= #b1 $e75) $e84 $e83)))
(let (($e86 ((_ extract 0 0) $e85)))
(let (($e87 (ite (= bvlambda_7_ $e86) #b1 #b0)))
(let (($e88 ((_ extract 2 1) $e85)))
(let (($e89 (ite (= bvlambda_6_ $e88) #b1 #b0)))
(let (($e90 ((_ extract 4 3) $e85)))
(let (($e91 (ite (= bvlambda_5_ $e90) #b1 #b0)))
(let (($e92 ((_ extract 5 5) $e85)))
(let (($e93 (ite (= bvlambda_4_ $e92) #b1 #b0)))
(let (($e94 ((_ extract 6 6) $e85)))
(let (($e95 (ite (= bvlambda_3_ $e94) #b1 #b0)))
(let (($e96 ((_ extract 7 7) $e85)))
(let (($e97 (ite (= bvlambda_2_ $e96) #b1 #b0)))
(let (($e98 ((_ extract 8 8) $e85)))
(let (($e99 (ite (= bvlambda_1_ $e98) #b1 #b0)))
(let (($e100 (bvand $e99 $e97)))
(let (($e101 (bvand $e100 $e95)))
(let (($e102 (bvand $e101 $e93)))
(let (($e103 (bvand $e102 $e91)))
(let (($e104 (bvand $e103 $e89)))
(let (($e105 (bvand $e104 $e87)))
(let (($e106 (concat $e17 $e105)))
(let (($e107 (bvand $e57 $e106)))
(let (($e108 (ite (bvult $e21 (bvnot $e107)) #b1 #b0)))
(let (($e109 (bvand (bvnot $e108) $e82)))
(let (($e110 (ite (= (bvnot $e8) (bvnot $e57)) #b1 #b0)))
(let (($e111 (bvand (bvnot $e110) (bvnot $e109))))
(let (($e112 (bvand (bvnot $e111) (bvnot $e65))))
(let (($e113 (concat $e11 bvlambda_1_)))
(let (($e114 (concat $e113 bvlambda_2_)))
(let (($e115 (concat $e114 bvlambda_3_)))
(let (($e116 (concat $e115 bvlambda_4_)))
(let (($e117 (concat $e116 bvlambda_5_)))
(let (($e118 (concat $e117 bvlambda_6_)))
(let (($e119 (concat $e118 bvlambda_7_)))
(let (($e120 (bvand (bvnot $e22) $e119)))
(let (($e121 (ite (bvult $e120 $e119) #b1 #b0)))
(let (($e122 (concat $e19 $e77)))
(let (($e123 (bvand $e3 $e122)))
(let (($e124 (ite (= $e28 $e123) #b1 #b0)))
(let (($e125 (bvand (bvnot $e3) (bvnot $e122))))
(let (($e126 (ite (= $e28 $e125) #b1 #b0)))
(let (($e127 (bvand $e126 $e124)))
(let (($e128 (bvand (bvnot $e127) (bvnot $e121))))
(let (($e129 (bvand (bvnot $e125) (bvnot $e123))))
(let (($e130 (concat (bvnot $e20) (bvnot $e129))))
(let (($e131 (concat $e20 (bvnot $e129))))
(let (($e132 ((_ extract 6 6) $e129)))
(let (($e133 (ite (= #b1 $e132) $e131 $e130)))
(let (($e134 (ite (= (bvnot $e6) $e133) #b1 #b0)))
(let (($e135 (bvand (bvnot $e134) $e128)))
(let (($e136 (concat $e79 (bvnot $e6))))
(let (($e137 (ite (bvult (bvnot $e29) $e136) #b1 #b0)))
(let (($e138 (bvand $e81 (bvnot $e137))))
(let (($e139 (bvand $e138 $e135)))
(let (($e140 (concat $e25 $e67)))
(let (($e141 (ite (bvult $e120 $e140) #b1 #b0)))
(let (($e142 (ite (= $e70 $e26) #b1 #b0)))
(let (($e143 (bvand $e142 (bvnot $e141))))
(let (($e144 (ite (= bvlambda_7_ $e105) #b1 #b0)))
(let (($e145 (bvand (bvnot $e18) $e46)))
(let (($e146 (ite (= $e17 $e145) #b1 #b0)))
(let (($e147 (bvand $e146 $e144)))
(let (($e148 (concat $e17 $e147)))
(let (($e149 (ite (bvult (bvnot $e107) $e148) #b1 #b0)))
(let (($e150 (bvand $e149 $e141)))
(let (($e151 (bvand (bvnot $e150) (bvnot $e143))))
(let (($e152 (bvadd (bvnot $e57) (bvnot $e12))))
(let (($e153 ((_ extract 11 0) $e152)))
(let (($e154 (ite (bvult $e153 (bvnot $e22)) #b1 #b0)))
(let (($e155 ((_ extract 12 12) $e152)))
(let (($e156 (bvand $e155 $e154)))
(let (($e157 (bvand $e156 $e151)))
(let (($e158 (bvand (bvnot $e156) (bvnot $e151))))
(let (($e159 (bvand (bvnot $e158) (bvnot $e157))))
(let (($e160 (ite (= $e159 (bvnot $e139)) #b1 #b0)))
(let (($e161 (bvand (bvnot $e160) $e111)))
(let (($e162 (bvand (bvnot $e161) (bvnot $e112))))
(let (($e163 ((_ extract 9 9) $e67)))
(let (($e164 (bvand $e163 (bvnot $e162))))
(let (($e165 (concat $e8 $e78)))
(let (($e166 (concat (bvnot $e8) $e78)))
(let (($e167 (ite (= #b1 $e81) $e166 $e165)))
(let (($e168 (bvadd (bvnot $e13) (bvnot $e167))))
(let (($e169 ((_ extract 14 14) $e167)))
(let (($e170 (ite (= #b1 $e169) $e168 $e167)))
(let (($e171 (bvurem $e170 $e14)))
(let (($e172 (bvadd (bvnot $e13) (bvnot $e171))))
(let (($e173 (ite (= #b1 $e169) $e172 $e171)))
(let (($e174 ((_ extract 1 0) $e173)))
(let (($e175 (ite (= $e78 $e174) #b1 #b0)))
(let (($e176 ((_ extract 14 2) $e173)))
(let (($e177 (ite (= $e8 $e176) #b1 #b0)))
(let (($e178 (bvand $e177 $e175)))
(let (($e179 (concat $e23 $e147)))
(let (($e180 (ite (bvult $e179 $e4) #b1 #b0)))
(let (($e181 (bvand (bvnot $e180) (bvnot $e178))))
(let (($e182 (concat $e24 $e105)))
(let (($e183 (concat (bvnot $e24) $e105)))
(let (($e184 (ite (= #b1 $e105) $e183 $e182)))
(let (($e185 ((_ extract 14 14) $e184)))
(let (($e186 (ite (= $e81 $e185) #b1 #b0)))
(let (($e187 ((_ extract 13 0) $e184)))
(let (($e188 (ite (bvult $e187 $e136) #b1 #b0)))
(let (($e189 (bvand $e188 $e186)))
(let (($e190 (bvand (bvnot $e81) $e185)))
(let (($e191 (bvand (bvnot $e190) (bvnot $e189))))
(let (($e192 (bvand (bvnot $e191) $e181)))
(let (($e193 (ite (bvult $e153 (bvnot $e27)) #b1 #b0)))
(let (($e194 (bvand $e155 $e193)))
(let (($e195 (bvand (bvnot $e194) (bvnot $e192))))
(let (($e196 (bvand $e194 $e192)))
(let (($e197 (bvand (bvnot $e196) (bvnot $e195))))
(let (($e198 (bvand $e197 $e162)))
(let (($e199 (bvand (bvnot $e198) (bvnot $e164))))
(let (($e200 (concat (bvnot $e20) (bvnot $e75))))
(let (($e201 (concat $e20 (bvnot $e75))))
(let (($e202 (ite (= #b1 $e75) $e201 $e200)))
(let (($e203 (ite (bvult $e202 $e3) #b1 #b0)))
(let (($e204 (concat (bvnot $e25) (bvnot $e107))))
(let (($e205 (concat $e25 (bvnot $e107))))
(let (($e206 ((_ extract 12 12) $e107)))
(let (($e207 (ite (= #b1 $e206) $e205 $e204)))
(let (($e208 ((_ extract 12 0) $e207)))
(let (($e209 (ite (= (bvnot $e6) $e208) #b1 #b0)))
(let (($e210 ((_ extract 14 13) $e207)))
(let (($e211 (ite (= $e78 $e210) #b1 #b0)))
(let (($e212 (bvand $e211 $e209)))
(let (($e213 (bvand (bvnot $e212) (bvnot $e203))))
(let (($e214 (bvand $e212 $e203)))
(let (($e215 (bvand (bvnot $e214) (bvnot $e213))))
(let (($e216 (concat $e23 $e105)))
(let (($e217 (ite (bvult $e15 $e216) #b1 #b0)))
(let (($e218 (bvand (bvnot $e217) $e215)))
(let (($e219 (bvand (bvnot $e218) (bvnot $e199))))
(let (($e220 (bvand $e218 $e199)))
(let (($e221 (bvand (bvnot $e220) (bvnot $e219))))
 (not (= $e221 #b0)))))))))))))))))))))))))))))))))))))))))))))))))))))))))))))))))))))))))))))))))))))))))))))))))))))))))))))))))))))))))))))))))))))))))))))))))))))))))))))))))))))))))))))))))))))))))))))))))))))))))))))))))))))
(check-sat)
(exit)
